
Gurobi 13.0.2 (win64) logging started Thu Jul 23 18:27:40 2026

Set parameter LogFile to value "E:\codes\ExactEBRP\results\gf_gurobi_performance_recovery_round29\runs\stage4__moderate_seed6301__c4_candidate__rep1__300s\external\native_logs\L1.0.1.1.0.0.0_lp.gurobi.log"
Gurobi Optimizer version 13.0.2 build v13.0.2rc1 (win64 - Windows 10.0 (19045.2))

CPU model: 12th Gen Intel(R) Core(TM) i7-12700KF, instruction set [SSE2|AVX|AVX2]
Thread count: 12 physical cores, 20 logical processors, using up to 1 threads

Non-default parameters:
TimeLimit  128.3768831
MIPGap  0
MIPGapAbs  0
LogToConsole  0
Threads  1

Optimize a model with 93027 rows, 18191 columns and 665810 nonzeros (Min)
Model fingerprint: 0x5630d042
Model has 51 linear objective coefficients
Coefficient statistics:
  Matrix range     [7e-03, 2e+04]
  Objective range  [7e-03, 1e+00]
  Bounds range     [2e-01, 4e+03]
  RHS range        [2e-01, 5e+04]

Presolve removed 4701 rows and 255 columns
Presolve time: 0.39s
Presolved: 17932 rows, 106274 columns, 664813 nonzeros

Iteration    Objective       Primal Inf.    Dual Inf.      Time
       0      handle free variables                          0s

Extra simplex iterations after uncrush: 3
   11996    4.8622954e-01   0.000000e+00   0.000000e+00      4s

Solved in 11996 iterations and 4.50 seconds (15.18 work units)
Optimal objective  4.862295353e-01

User-callback calls 12162, time in user-callback 0.00 sec
